* ENCODING=ISO-8859-1
NAME          CPLEX
ROWS
 N  obj1    
 G  c1      
 G  c2      
 G  c3      
 G  c4      
 G  c5      
 G  c6      
 G  c7      
 G  c8      
 G  c9      
 G  c10     
 G  c11     
 G  c12     
 G  c13     
 G  c14     
 G  c15     
 G  c16     
 G  c17     
 G  c18     
 G  c19     
 G  c20     
 G  c21     
 G  c22     
 G  c23     
 G  c24     
 G  c25     
 G  c26     
 G  c27     
 G  c28     
 G  c29     
 G  c30     
COLUMNS
    MARK0000  'MARKER'                 'INTORG'
    x1        obj1                            1
    x1        c14                           978
    x1        c28                           482
    x1        c29                           145
    x2        obj1                            1
    x2        c13                           576
    x2        c16                           393
    x3        obj1                            1
    x3        c6                            954
    x3        c22                           590
    x3        c26                           381
    x4        obj1                            1
    x4        c5                            326
    x4        c21                           471
    x4        c22                           795
    x5        obj1                            1
    x5        c4                            676
    x5        c11                           499
    x5        c22                           277
    x5        c24                           110
    x6        obj1                            1
    x6        c7                            407
    x6        c26                           852
    x7        obj1                            1
    x7        c1                            323
    x7        c5                            157
    x7        c17                           902
    x7        c24                           377
    x8        obj1                            1
    x8        c5                            602
    x8        c7                            308
    x8        c21                           804
    x8        c23                           517
    x9        obj1                            1
    x9        c15                           620
    x9        c26                           122
    x10       obj1                            1
    x10       c18                           401
    x11       obj1                            1
    x11       c3                            152
    x11       c22                           683
    x12       obj1                            1
    x12       c19                           311
    x12       c20                           362
    x12       c29                           444
    x13       obj1                            1
    x13       c8                            288
    x13       c9                            236
    x13       c21                           614
    x13       c30                           376
    x14       obj1                            1
    x14       c3                            514
    x14       c24                           350
    x15       obj1                            1
    x15       c2                            114
    x15       c5                            281
    x15       c13                           229
    x15       c16                           957
    x16       obj1                            1
    x16       c11                           735
    x16       c18                           993
    x16       c21                           180
    x17       obj1                            1
    x17       c2                            933
    x17       c4                            803
    x17       c14                           417
    x17       c25                           836
    x18       obj1                            1
    x18       c2                            240
    x18       c21                           557
    x18       c25                           168
    x18       c27                           724
    x19       obj1                            1
    x19       c1                            678
    x19       c7                            567
    x19       c22                           874
    x19       c27                           216
    x19       c30                           903
    x20       obj1                            1
    x20       c8                            922
    x20       c11                           861
    x20       c13                           521
    x20       c21                           472
    x20       c25                           589
    x20       c27                           411
    x20       c30                           617
    x21       obj1                            1
    x21       c3                            677
    x21       c14                           889
    x21       c15                           477
    x21       c16                           489
    x21       c21                           729
    x22       obj1                            1
    x22       c2                            588
    x22       c3                            648
    x22       c6                            650
    x22       c20                           765
    x22       c26                           314
    x22       c27                           563
    x23       obj1                            1
    x23       c6                            696
    x23       c23                           198
    x23       c24                           423
    x24       obj1                            1
    x25       obj1                            1
    x25       c7                            157
    x26       obj1                            1
    x26       c14                           288
    x27       obj1                            1
    x27       c1                            202
    x27       c19                           604
    x27       c20                           477
    x27       c21                           249
    x27       c24                           507
    x27       c27                           652
    x28       obj1                            1
    x28       c11                           688
    x28       c22                           179
    x29       obj1                            1
    x29       c9                            615
    x29       c10                           549
    x29       c16                           974
    x30       obj1                            1
    x30       c7                            370
    x30       c30                           163
    x31       obj1                            1
    x31       c9                            540
    x31       c22                           227
    x32       obj1                            1
    x32       c16                           561
    x32       c27                           683
    x33       obj1                            1
    x33       c11                           875
    x33       c16                           215
    x34       obj1                            1
    x34       c1                            394
    x34       c8                            615
    x35       obj1                            1
    x35       c12                           319
    x35       c14                           473
    x35       c16                           715
    x35       c17                           512
    x35       c20                           655
    x36       obj1                            1
    x36       c4                            535
    x36       c19                           449
    x36       c20                           476
    x36       c25                           753
    x37       obj1                            1
    x37       c6                            742
    x37       c16                          1000
    x37       c22                           124
    x38       obj1                            1
    x38       c8                            306
    x38       c19                           652
    x39       obj1                            1
    x39       c3                            409
    x39       c8                            701
    x39       c15                           383
    x39       c18                           116
    x39       c24                           987
    x39       c29                           919
    x40       obj1                            1
    x40       c5                            884
    x40       c10                           182
    x41       obj1                            1
    x41       c13                           117
    x41       c18                           349
    x41       c21                           820
    x41       c22                           717
    x42       obj1                            1
    x42       c6                            226
    x42       c7                            655
    x42       c25                           160
    x42       c28                           221
    x43       obj1                            1
    x43       c2                            555
    x43       c10                           955
    x43       c12                           996
    x43       c24                           629
    x43       c26                           467
    x44       obj1                            1
    x44       c11                           619
    x44       c24                           310
    x44       c26                           615
    x44       c27                           890
    x45       obj1                            1
    x45       c19                           975
    x46       obj1                            1
    x46       c3                            946
    x47       obj1                            1
    x47       c1                            381
    x47       c6                            917
    x48       obj1                            1
    x48       c9                            838
    x48       c11                           679
    x48       c26                           397
    x49       obj1                            1
    x49       c1                            579
    x49       c14                           358
    x49       c15                           955
    x49       c30                           119
    x50       obj1                            1
    x50       c15                           453
    x50       c28                           639
    x51       obj1                            1
    x51       c16                           399
    x51       c24                           260
    x52       obj1                            1
    x52       c2                            494
    x52       c8                            953
    x53       obj1                            1
    x53       c4                            538
    x54       obj1                            1
    x54       c3                            632
    x54       c12                           110
    x54       c29                           278
    x55       obj1                            1
    x55       c1                            721
    x55       c20                           666
    x56       obj1                            1
    x56       c10                           712
    x56       c12                           412
    x56       c19                           852
    x56       c26                           175
    x57       obj1                            1
    x57       c5                            454
    x57       c18                           676
    x57       c26                           586
    x57       c27                           402
    x58       obj1                            1
    x58       c6                            163
    x58       c17                           961
    x58       c25                           354
    x59       obj1                            1
    x59       c7                            172
    x59       c11                           756
    x59       c15                           800
    x59       c19                           200
    x59       c28                           521
    x60       obj1                            1
    x60       c4                            640
    x60       c15                           721
    x60       c20                           388
    x60       c23                           820
    MARK0001  'MARKER'                 'INTEND'
RHS
    rhs       c1                           1639
    rhs       c2                           1462
    rhs       c3                           1989
    rhs       c4                           1596
    rhs       c5                           1352
    rhs       c6                           2174
    rhs       c7                           1318
    rhs       c8                           1893
    rhs       c9                           1115
    rhs       c10                          1199
    rhs       c11                          2856
    rhs       c12                           919
    rhs       c13                           722
    rhs       c14                          1702
    rhs       c15                          2205
    rhs       c16                          2852
    rhs       c17                          1188
    rhs       c18                          1268
    rhs       c19                          2022
    rhs       c20                          1895
    rhs       c21                          2448
    rhs       c22                          2233
    rhs       c23                           768
    rhs       c24                          1977
    rhs       c25                          1430
    rhs       c26                          1955
    rhs       c27                          2271
    rhs       c28                           932
    rhs       c29                           893
    rhs       c30                          1089
BOUNDS
 LI bnd       x1        0
 LI bnd       x2        0
 LI bnd       x3        0
 LI bnd       x4        0
 LI bnd       x5        0
 LI bnd       x6        0
 LI bnd       x7        0
 LI bnd       x8        0
 LI bnd       x9        0
 LI bnd       x10       0
 LI bnd       x11       0
 LI bnd       x12       0
 LI bnd       x13       0
 LI bnd       x14       0
 LI bnd       x15       0
 LI bnd       x16       0
 LI bnd       x17       0
 LI bnd       x18       0
 LI bnd       x19       0
 LI bnd       x20       0
 LI bnd       x21       0
 LI bnd       x22       0
 LI bnd       x23       0
 LI bnd       x24       0
 LI bnd       x25       0
 LI bnd       x26       0
 LI bnd       x27       0
 LI bnd       x28       0
 LI bnd       x29       0
 LI bnd       x30       0
 LI bnd       x31       0
 LI bnd       x32       0
 LI bnd       x33       0
 LI bnd       x34       0
 LI bnd       x35       0
 LI bnd       x36       0
 LI bnd       x37       0
 LI bnd       x38       0
 LI bnd       x39       0
 LI bnd       x40       0
 LI bnd       x41       0
 LI bnd       x42       0
 LI bnd       x43       0
 LI bnd       x44       0
 LI bnd       x45       0
 LI bnd       x46       0
 LI bnd       x47       0
 LI bnd       x48       0
 LI bnd       x49       0
 LI bnd       x50       0
 LI bnd       x51       0
 LI bnd       x52       0
 LI bnd       x53       0
 LI bnd       x54       0
 LI bnd       x55       0
 LI bnd       x56       0
 LI bnd       x57       0
 LI bnd       x58       0
 LI bnd       x59       0
 LI bnd       x60       0
ENDATA
